0 13 3 17 17 16 16 15 14 14 11 12 10 11 9 10 45 7 5 9 11 12 13 14 14 13 12 11 4 16 15 9 6 5 3 6 10 12 9 9 11 15 15 14 16 9 8 8 13 6
15 0 14 12 11 11 10 9 8 8 6 7 5 5 7 8 38 10 10 10 9 10 10 5 4 3 4 5 12 14 11 8 9 12 13 11 8 10 7 13 10 16 16 12 14 14 13 14 11 14
4 12 0 15 19 19 19 17 16 16 12 13 11 11 8 8 43 5 3 7 9 10 11 12 12 12 10 12 1 14 11 7 4 3 1 8 10 10 7 11 13 16 17 14 16 8 9 7 14 6
15 12 14 0 20 20 19 18 17 17 16 16 15 15 18 17 38 16 10 9 7 5 3 14 14 11 14 15 12 9 6 8 11 13 12 19 17 7 8 20 19 19 19 21 24 14 15 13 19 13
18 12 21 21 0 4 5 8 7 7 8 10 9 9 12 12 38 15 18 18 17 18 19 13 12 11 10 11 20 22 19 16 17 19 20 14 12 18 15 17 13 20 20 14 17 18 17 19 14 19
18 11 19 20 3 0 4 5 7 7 8 11 9 9 12 12 38 14 18 18 17 18 18 13 12 11 10 11 19 22 19 16 17 20 17 16 11 17 15 17 13 19 20 14 17 18 17 19 14 18
17 10 20 19 5 4 0 5 6 6 7 9 8 8 11 11 36 13 17 17 16 17 17 12 11 10 9 10 18 20 18 15 16 19 17 15 10 17 14 16 12 18 19 13 15 17 16 18 13 17
15 9 17 18 8 7 7 0 5 5 5 7 6 7 10 10 35 12 16 16 15 15 16 11 10 9 7 9 17 19 17 13 14 17 17 13 9 15 13 14 11 17 18 13 16 15 15 17 12 16
14 7 15 17 7 7 6 5 0 1 4 6 6 7 8 8 37 10 14 14 13 13 14 9 8 7 6 8 16 18 15 12 13 16 13 12 7 14 11 13 9 15 16 12 14 14 13 15 10 14
14 7 15 17 7 7 6 5 1 0 4 6 6 7 8 8 37 11 14 14 13 14 14 9 8 7 6 7 15 18 15 12 13 16 13 11 7 14 11 13 9 16 16 11 14 14 13 15 11 15
12 6 16 15 7 6 6 5 4 4 0 1 1 2 6 5 36 8 13 13 12 12 13 8 7 6 4 5 13 16 14 11 12 14 13 8 5 12 10 11 7 13 14 9 12 12 11 13 8 12
14 6 15 16 9 8 8 6 6 6 1 0 2 3 6 6 38 8 13 13 12 12 13 8 7 6 5 5 14 16 14 11 12 14 14 9 7 12 10 11 8 14 14 10 12 12 12 14 9 13
11 5 14 15 8 8 7 6 5 5 1 2 0 2 5 5 38 7 12 12 11 12 13 7 7 5 4 4 13 16 13 10 11 13 13 8 5 12 9 10 7 12 13 9 11 11 10 13 8 11
11 7 12 16 9 9 8 7 6 6 4 5 3 0 3 2 43 5 12 15 12 12 13 8 8 6 3 2 12 18 14 11 12 10 10 6 4 14 11 9 5 11 12 8 10 10 9 11 7 10
11 7 12 16 9 9 8 7 6 6 4 4 3 2 0 2 42 5 14 13 12 13 14 8 8 7 3 1 12 17 15 11 12 11 10 7 4 13 11 10 6 12 13 8 11 11 10 12 7 11
8 9 9 18 12 12 12 11 10 10 7 7 6 5 3 0 46 2 11 15 14 14 15 11 10 9 5 4 10 18 16 13 10 8 8 6 8 15 12 11 9 15 16 12 14 12 12 12 10 10
45 37 44 36 38 36 37 38 36 36 36 39 37 38 41 40 0 43 40 39 37 36 33 33 34 34 39 40 40 43 39 37 41 42 43 43 39 35 38 45 42 48 49 42 45 42 44 42 43 42
7 10 6 15 14 14 14 12 11 11 9 9 8 7 4 5 44 0 8 13 12 12 13 11 11 10 8 6 8 17 14 12 7 6 5 5 7 13 9 10 8 14 15 11 13 12 11 11 10 9
5 9 6 10 17 17 16 15 14 14 12 13 11 12 13 12 40 10 0 3 6 7 8 10 11 8 11 13 1 10 9 4 3 6 4 9 13 7 4 11 13 13 14 17 20 7 8 6 14 5
10 9 10 8 17 17 16 15 14 14 13 13 11 12 14 13 40 13 5 0 2 5 8 10 11 8 11 13 6 9 6 4 6 10 8 12 15 7 5 13 13 13 13 17 19 8 9 7 13 7
11 8 10 6 16 16 15 15 14 14 12 13 11 11 14 13 38 12 6 3 0 3 6 10 10 8 10 12 7 7 5 4 7 9 9 13 13 5 5 13 13 13 14 18 20 8 9 7 13 7
14 11 13 5 19 19 18 17 16 16 14 15 13 13 17 15 38 14 8 5 3 0 4 12 12 10 12 14 9 6 3 6 9 12 12 14 16 4 7 15 15 15 16 19 21 10 11 9 15 9
11 8 10 6 16 16 15 14 13 13 12 12 11 11 13 13 36 12 6 5 3 2 0 9 10 8 10 11 7 8 6 4 7 9 9 14 13 3 5 14 15 14 15 17 20 9 10 8 14 8
14 5 14 13 13 12 12 11 10 10 8 9 7 7 10 10 34 11 11 10 10 10 11 0 2 4 6 8 13 14 12 8 11 11 12 13 10 10 8 15 11 17 18 14 16 15 15 14 13 14
13 4 13 13 12 12 11 10 10 10 8 8 7 7 10 9 34 11 10 10 9 9 10 5 0 2 6 8 11 13 11 8 9 11 11 12 9 9 7 14 11 17 18 13 15 15 15 13 12 14
13 3 12 12 11 11 11 10 8 8 6 7 6 6 8 8 36 11 10 9 8 9 10 5 4 0 5 6 11 13 11 7 9 11 11 11 8 9 6 14 10 16 17 12 15 14 14 13 12 13
12 6 11 14 10 9 9 8 7 7 5 7 6 4 4 4 39 7 13 12 10 11 12 7 6 5 0 2 12 15 13 10 11 11 10 10 7 11 9 12 9 17 16 11 13 13 12 15 10 14
12 5 11 16 11 10 10 9 8 8 5 6 4 3 3 3 41 6 12 13 11 12 13 7 7 5 1 0 12 17 14 10 10 10 10 8 6 12 9 11 7 14 14 10 12 12 11 14 9 12
4 10 4 13 18 18 17 16 15 15 14 14 12 12 13 10 42 6 1 5 7 8 9 11 11 9 11 13 0 11 10 5 2 5 3 8 12 8 5 10 12 14 15 15 18 6 7 5 13 4
16 13 16 9 21 21 21 19 19 19 17 18 16 17 19 18 43 17 10 9 7 7 10 15 15 13 15 17 11 0 4 9 12 14 15 16 19 9 10 17 17 17 17 21 23 12 13 11 17 11
15 12 15 5 21 20 20 19 17 17 16 16 15 15 18 17 40 16 9 8 6 7 5 14 14 12 14 16 11 5 0 8 11 13 13 15 18 8 9 16 16 16 17 20 23 11 12 10 16 10
9 7 8 8 15 15 14 13 12 12 11 11 10 10 13 12 38 11 4 5 4 4 5 8 9 6 8 11 6 8 6 0 5 8 7 14 12 5 2 15 14 17 17 16 18 10 11 9 15 10
6 9 5 11 17 17 16 15 14 14 12 13 11 11 12 11 41 8 2 6 7 8 9 10 10 8 10 12 2 13 10 4 0 5 3 11 14 8 3 13 15 15 16 18 20 9 10 8 16 7
5 9 4 12 17 17 17 16 14 14 13 13 12 12 11 10 42 8 4 8 8 9 9 11 11 8 11 11 3 12 10 7 3 0 3 11 13 9 4 13 14 18 18 17 19 10 11 9 15 8
5 10 4 13 16 15 14 13 13 13 11 11 9 9 6 6 43 3 6 9 9 9 10 10 11 9 8 8 5 14 11 8 4 3 0 7 8 9 7 12 9 16 16 12 16 10 10 9 11 8
7 11 9 21 13 13 13 12 10 11 8 9 7 8 9 9 45 6 10 13 16 18 18 13 12 11 10 9 9 18 16 15 12 11 10 0 6 18 14 6 4 11 11 7 9 9 8 8 6 7
12 9 13 18 11 11 11 10 8 8 7 7 5 6 7 7 41 9 14 18 14 15 16 11 10 9 8 7 14 22 17 13 14 13 12 7 0 15 13 9 6 13 14 8 11 10 9 11 7 12
13 10 12 7 18 17 17 16 15 15 13 14 12 12 15 14 37 13 7 7 5 3 4 11 11 9 11 13 8 9 7 4 8 10 10 17 15 0 5 18 16 19 20 19 21 11 11 10 18 12
8 6 7 9 15 14 13 13 12 12 10 11 9 9 12 11 39 11 4 6 5 6 6 8 8 6 8 10 5 9 7 2 3 7 5 13 11 6 0 15 14 17 18 15 18 12 12 11 15 10
10 11 12 21 15 14 14 13 11 12 9 10 8 8 10 10 44 9 12 15 18 20 20 13 13 12 10 10 11 20 18 16 14 13 12 4 6 18 16 0 4 11 11 8 11 9 8 9 5 8
11 11 13 20 14 14 13 12 11 11 8 9 7 8 9 9 43 10 10 14 13 18 18 13 12 11 9 9 10 17 15 15 13 13 11 7 5 18 14 4 0 6 6 8 10 5 4 6 4 7
14 15 17 17 18 17 17 16 15 15 12 13 11 12 13 13 48 14 14 11 12 14 15 16 16 15 13 13 13 16 14 18 15 17 15 10 9 15 18 7 8 0 3 10 12 7 7 9 5 10
18 18 19 20 21 20 20 19 18 18 16 16 14 15 16 17 51 17 14 14 15 17 19 20 19 18 17 16 17 20 17 17 19 20 19 14 13 17 19 11 11 3 0 13 15 11 11 11 9 14
16 14 17 23 14 14 13 15 13 13 11 12 10 11 12 12 44 13 18 21 19 20 21 16 15 14 13 12 18 26 22 18 19 17 16 11 8 20 18 12 8 13 13 0 4 13 12 14 8 16
18 15 19 25 17 17 16 16 15 15 13 13 12 12 13 14 46 14 20 22 21 21 22 17 16 15 14 13 19 26 24 20 20 19 18 12 10 22 19 14 10 14 14 3 0 14 14 16 10 17
8 15 10 18 18 18 17 16 15 15 13 13 12 12 13 14 47 12 7 11 8 11 15 17 17 15 14 13 6 15 9 11 9 11 9 8 10 14 11 6 6 8 9 12 14 0 1 2 7 3
9 14 11 19 18 17 17 16 15 15 12 13 11 11 13 13 45 13 8 12 14 15 16 17 16 15 13 13 7 17 10 12 10 12 10 9 9 16 12 6 6 7 8 11 14 1 0 4 7 4
7 14 9 15 17 17 17 16 15 15 12 13 11 12 13 13 46 10 5 7 9 12 13 16 16 14 13 13 5 14 12 10 7 9 8 7 10 13 9 6 7 11 11 14 16 2 3 0 9 2
14 11 15 21 14 14 13 13 11 11 9 10 8 8 10 10 44 11 13 17 13 18 19 13 13 11 10 9 13 17 15 17 15 15 14 8 6 21 17 6 3 6 7 6 9 7 6 9 0 10
6 14 8 17 17 16 16 15 14 14 11 12 10 11 12 13 45 9 5 9 11 14 13 16 15 14 12 12 4 13 15 9 7 8 7 6 10 12 9 6 9 12 12 13 15 4 4 2 11 0
